p cnf 7230 17
-2940 -2941 0
-1322 -2236 -2938 0
-419 -2702 -2936 0
-1680 -2620 -2934 0
1322 -2939 0
419 -2937 0
1680 -2935 0
2938 2939 0
2936 2937 0
2934 2935 0
2236 -2939 0
2702 -2937 0
2620 -2935 0
-1414 -2256 2941 0
2932 2933 0
2256 -2941 0
1414 -2941 0
